cnf/map_20x20_25p_1.cnf
p cnf 400 711
-399 0
-397 0
-395 0
-394 0
-393 0
-391 0
-390 0
-389 0
-385 0
-383 0
-379 0
-378 0
-377 0
-375 0
-373 0
-372 0
-371 0
-369 0
-368 0
-367 0
-366 0
-365 0
-364 0
-363 0
-362 0
-361 0
-359 0
-358 0
-357 0
-355 0
-354 0
-352 0
-351 0
-349 0
-346 0
-344 0
-342 0
-339 0
-337 0
-336 0
-335 0
-334 0
-333 0
-332 0
-331 0
-330 0
-329 0
-328 0
-327 0
-326 0
-324 0
-323 0
-322 0
-321 0
-320 0
-319 0
-318 0
-317 0
-316 0
-315 0
-314 0
-310 0
-309 0
-308 0
-306 0
-305 0
-304 0
-303 0
-302 0
-301 0
-300 0
-298 0
-297 0
-294 0
-293 0
-292 0
-290 0
-288 0
-286 0
-285 0
-283 0
-282 0
-280 0
-278 0
-277 0
-276 0
-274 0
-272 0
-270 0
-269 0
-268 0
-267 0
-266 0
-265 0
-263 0
-262 0
-261 0
-260 0
-259 0
-258 0
-257 0
-256 0
-255 0
-254 0
-253 0
-252 0
-248 0
-247 0
-246 0
-245 0
-244 0
-243 0
-242 0
-240 0
-236 0
-235 0
-233 0
-232 0
-229 0
-228 0
-226 0
-224 0
-222 0
-220 0
-219 0
-218 0
-217 0
-216 0
-215 0
-214 0
-212 0
-211 0
-209 0
-207 0
-205 0
-203 0
-202 0
-199 0
-195 0
-194 0
-191 0
-190 0
-189 0
-186 0
-185 0
-184 0
-183 0
-182 0
-180 0
-179 0
-178 0
-176 0
-175 0
-174 0
-173 0
-172 0
-171 0
-169 0
-168 0
-167 0
-166 0
-164 0
-162 0
-159 0
-158 0
-157 0
-156 0
-154 0
-152 0
-151 0
-150 0
-147 0
-146 0
-145 0
-144 0
-143 0
-142 0
-141 0
-139 0
-138 0
-137 0
-135 0
-134 0
-132 0
-130 0
-129 0
-128 0
-127 0
-125 0
-124 0
-122 0
-120 0
-119 0
-118 0
-114 0
-113 0
-112 0
-109 0
-108 0
-106 0
-105 0
-104 0
-103 0
-102 0
-100 0
-99 0
-98 0
-97 0
-96 0
-95 0
-94 0
-92 0
-91 0
-90 0
-89 0
-87 0
-86 0
-85 0
-83 0
-82 0
-81 0
-78 0
-77 0
-76 0
-75 0
-72 0
-71 0
-69 0
-66 0
-65 0
-64 0
-63 0
-62 0
-60 0
-59 0
-58 0
-56 0
-55 0
-53 0
-51 0
-49 0
-48 0
-47 0
-46 0
-45 0
-42 0
-41 0
-40 0
-39 0
-38 0
-36 0
-33 0
-32 0
-31 0
-27 0
-24 0
-23 0
-22 0
-20 0
-15 0
-12 0
-7 0
-6 0
-5 0
-3 0
-2 0
1 0
4 0
13 0
14 0
16 0
17 0
18 0
19 0
21 0
25 0
26 0
34 0
35 0
37 0
43 0
44 0
52 0
54 0
57 0
61 0
67 0
68 0
73 0
74 0
79 0
80 0
84 0
88 0
93 0
101 0
107 0
110 0
111 0
115 0
116 0
117 0
121 0
123 0
126 0
131 0
136 0
140 0
148 0
149 0
155 0
160 0
163 0
170 0
177 0
187 0
188 0
192 0
193 0
196 0
197 0
198 0
204 0
206 0
208 0
213 0
223 0
225 0
227 0
234 0
237 0
238 0
239 0
264 0
273 0
275 0
279 0
281 0
284 0
287 0
289 0
295 0
296 0
299 0
307 0
325 0
338 0
341 0
343 0
345 0
347 0
348 0
350 0
353 0
356 0
370 0
374 0
376 0
384 0
386 0
387 0
388 0
392 0
396 0
398 0
-400 -398 0
-400 -380 0
-398 -380 0
-384 -382 0
-382 -381 0
-382 -341 0
-380 -340 0
-380 -338 0
-360 -400 0
-360 -398 0
-360 -380 0
-360 -340 0
-360 -338 0
-353 -313 0
-341 -381 0
-340 -338 0
-340 -299 0
-313 -273 0
-312 -353 0
-312 -350 0
-312 -313 0
-312 -311 0
-312 -291 0
-312 -273 0
-312 -271 0
-311 -353 0
-311 -350 0
-311 -313 0
-311 -291 0
-311 -289 0
-311 -273 0
-295 -313 0
-291 -313 0
-291 -289 0
-291 -273 0
-291 -251 0
-291 -250 0
-291 -249 0
-289 -249 0
-281 -241 0
-271 -313 0
-271 -311 0
-271 -291 0
-271 -289 0
-271 -273 0
-271 -251 0
-271 -250 0
-271 -249 0
-251 -289 0
-251 -273 0
-251 -250 0
-251 -249 0
-250 -289 0
-250 -249 0
-241 -201 0
-231 -273 0
-231 -271 0
-231 -251 0
-231 -230 0
-231 -213 0
-231 -210 0
-230 -250 0
-230 -249 0
-230 -210 0
-227 -249 0
-223 -241 0
-223 -221 0
-223 -201 0
-223 -181 0
-221 -241 0
-221 -201 0
-221 -181 0
-213 -251 0
-210 -250 0
-210 -249 0
-210 -170 0
-208 -250 0
-208 -249 0
-208 -230 0
-208 -210 0
-201 -161 0
-200 -239 0
-200 -198 0
-192 -231 0
-192 -230 0
-192 -210 0
-181 -201 0
-181 -163 0
-181 -161 0
-165 -187 0
-165 -163 0
-163 -201 0
-163 -161 0
-161 -121 0
-160 -200 0
-155 -153 0
-133 -155 0
-133 -153 0
-133 -131 0
-131 -153 0
-126 -165 0
-93 -133 0
-70 -68 0
-70 -52 0
-70 -50 0
-70 -30 0
-70 -29 0
-70 -28 0
-68 -50 0
-68 -28 0
-52 -50 0
-52 -11 0
-52 -10 0
-50 -10 0
-30 -68 0
-30 -52 0
-30 -50 0
-30 -29 0
-30 -28 0
-30 -11 0
-30 -10 0
-29 -68 0
-29 -50 0
-29 -28 0
-28 -50 0
-28 -26 0
-13 -11 0
-11 -50 0
-11 -10 0
-8 -28 0
-8 -26 0
11 13 0
11 52 0
26 28 0
26 67 0
26 68 0
28 68 0
52 13 0
67 28 0
67 68 0
68 70 0
68 110 0
70 111 0
88 68 0
88 70 0
88 110 0
93 111 0
93 133 0
110 70 0
110 111 0
115 93 0
115 133 0
121 123 0
121 161 0
121 163 0
123 163 0
123 165 0
131 93 0
131 111 0
131 133 0
133 111 0
153 155 0
153 193 0
160 198 0
160 200 0
161 123 0
161 163 0
163 165 0
163 204 0
165 126 0
165 206 0
170 188 0
187 165 0
187 206 0
192 153 0
192 170 0
192 193 0
192 210 0
192 213 0
192 231 0
193 155 0
193 213 0
193 231 0
198 238 0
198 239 0
200 198 0
200 238 0
200 239 0
204 165 0
204 206 0
208 170 0
208 188 0
208 210 0
208 227 0
208 249 0
210 170 0
210 188 0
213 231 0
238 239 0
241 281 0
249 227 0
249 287 0
249 289 0
273 275 0
273 295 0
273 313 0
275 295 0
289 287 0
299 340 0
313 275 0
313 295 0
313 353 0
338 299 0
338 340 0
350 311 0
382 343 0
384 343 0
384 382 0
-384 -343 -382 0
-382 -341 -381 0
-343 -382 -381 0
-343 -382 -341 0
-343 -341 -381 0
-340 -299 -338 0
-287 -289 -249 0
-230 -188 -210 0
-208 -230 -210 0
-208 -230 -188 0
-208 -227 -249 0
-208 -188 -210 0
-206 -165 -204 0
-206 -165 -187 0
-193 -155 -153 0
-192 -210 -170 0
-192 -193 -153 0
-165 -204 -163 0
-165 -163 -123 0
-160 -198 -200 0
-155 -133 -115 0
-155 -115 -153 0
-133 -155 -153 0
-133 -131 -153 0
-133 -115 -153 0
-111 -133 -153 0
-111 -133 -131 0
-111 -131 -153 0
-111 -70 -110 0
-93 -115 -133 0
-88 -70 -68 0
-88 -70 -50 0
-88 -68 -50 0
-70 -68 -50 0
-68 -29 -28 0
-68 -28 -67 0
-29 -68 -67 0
-29 -28 -67 0
-13 -52 -11 0
8 26 28 0
11 52 13 0
28 29 68 0
50 52 70 0
50 68 70 0
67 28 29 0
67 28 68 0
67 68 29 0
88 50 68 0
88 50 70 0
88 68 70 0
110 70 111 0
115 93 133 0
115 155 133 0
123 163 165 0
131 133 111 0
153 115 133 0
153 115 155 0
153 131 111 0
153 131 133 0
153 133 111 0
153 155 133 0
153 155 193 0
160 198 200 0
161 163 181 0
163 204 165 0
187 165 206 0
192 153 193 0
192 210 170 0
204 165 206 0
208 188 230 0
208 210 188 0
208 210 230 0
208 249 227 0
210 188 230 0
241 221 223 0
249 250 289 0
249 289 287 0
251 213 231 0
289 291 311 0
312 273 313 0
312 313 353 0
312 350 311 0
338 299 340 0
341 382 343 0
360 338 340 0
381 341 343 0
381 341 382 0
381 382 343 0
384 382 343 0
400 380 398 0
-295 -313 -275 -273 0
-208 -210 -188 -170 0
-200 -239 -198 -238 0
-192 -231 -213 -193 0
-163 -123 -161 -121 0
-111 -93 -131 -133 0
-88 -70 -68 -110 0
-68 -28 -67 -26 0
26 67 28 68 0
67 28 29 68 0
70 50 52 30 0
88 50 68 70 0
88 110 68 70 0
131 93 133 111 0
153 115 155 133 0
153 131 133 111 0
161 121 123 163 0
161 163 201 181 0
192 193 213 231 0
192 210 230 231 0
200 239 198 238 0
201 241 221 223 0
208 210 170 188 0
208 210 188 230 0
221 201 181 223 0
273 251 271 231 0
273 251 291 271 0
273 275 313 295 0
289 291 311 271 0
312 313 353 311 0
360 380 338 340 0
360 380 400 398 0
381 341 382 343 0
10 11 50 52 30 0
230 208 210 249 250 0
68 70 50 28 29 30 0
289 291 271 249 250 251 0
291 271 273 311 312 313 0